79 92 9 95 73 43 78 1 37 29 59 88 24 77 16 30 62 18 34 12 40 83 28 35 75 3 10 49 76 60 99 81 74 8 48 2 46 89 14 13 65 58 42 31 94 33 85 5 27 20 80 98 61 66 19 7 52 91 39 44 64 68 21 45 36 57 93 23 82 51 70 67 71 86 54 17 50 63 72 26 96 32 56 55 97 15 22 4 84 41 90 0 25 53 11 87 38 69 6 47